19
Properties=species:S:1:pos:R:3 pbc="F F F"
C       -0.67000000     -12.11100000      19.55400000
C        0.60300000     -11.51100000      18.95900000
C       -1.00300000     -11.46700000      20.89500000
H       -1.51700000     -11.97800000      18.87800000
H       -0.53200000     -13.18200000      19.71600000
H        1.45800000     -11.74200000      19.59500000
H        0.51900000     -10.42600000      18.91200000
H       -1.90400000     -11.94500000      21.29500000
H       -0.18600000     -11.66700000      21.59700000
H        0.76863970     -11.85812000      17.92843000
H       -1.16391200     -10.38269000      20.80347000
C       -1.80200000     -10.31800000      16.49200000
C       -1.45000000      -9.18600000      15.53600000
H       -1.67100000     -11.28500000      16.01100000
H       -1.24900000     -10.18800000      17.41600000
H       -2.85800000     -10.23400000      16.75700000
H       -1.98600000      -8.28800000      15.84300000
H       -1.73452100      -9.44758700      14.50614000
H       -0.37036460      -8.97980400      15.57925000
