16
Properties=species:S:1:pos:R:3 pbc="F F F"
C       -7.11700000       5.10400000     -24.06100000
C       -5.85200000       4.79100000     -24.84800000
H       -6.93400000       5.01000000     -22.98800000
H       -7.43800000       6.12000000     -24.27500000
H       -7.91800000       4.42200000     -24.35600000
H       -6.05800000       4.93700000     -25.90500000
H       -5.56272100       3.74398400     -24.67458000
H       -5.04191400       5.47196300     -24.54791000
C       -8.11600000       8.81900000     -24.21100000
C       -9.60700000       8.60100000     -23.97000000
H       -7.92000000       9.87000000     -24.42400000
H       -7.55400000       8.52100000     -23.32500000
H       -7.78500000       8.22000000     -25.05800000
H       -9.74500000       7.55700000     -23.70200000
H      -10.16854000       8.80011700     -24.89468000
H       -9.95320500       9.22561100     -23.13334000
