24
Properties=species:S:1:pos:R:3 pbc="F F F"
C        2.30100000      11.51200000       7.38900000
C        1.68200000      10.56100000       6.38100000
C        3.50900000      13.66600000       7.36400000
N        2.87900000      12.68900000       6.72900000
N        3.65600000      13.62400000       8.67300000
N        4.00000000      14.68500000       6.68800000
H        1.51700000      11.84200000       8.07400000
H        3.05900000      10.98900000       7.97400000
H        2.42500000      10.31800000       5.61700000
H        0.84400000      11.07600000       5.90900000
H        2.75100000      12.79000000       5.73100000
H        3.26900000      12.86300000       9.20200000
H        4.19100000      14.34700000       9.13300000
H        3.88700000      14.74500000       5.69000000
H        4.52900000      15.39100000       7.18000000
H        1.35184800       9.63267200       6.87008800
C        5.70100000      10.90800000       6.94500000
C        6.59000000      10.71100000       5.72300000
H        5.93200000      10.16000000       7.70400000
H        5.86300000      11.89700000       7.37600000
H        4.67500000      10.79100000       6.62500000
H        7.61300000      10.63400000       6.05000000
H        6.28790800       9.80472300       5.17765500
H        6.52932000      11.58653000       5.05985100
