16
Properties=species:S:1:pos:R:3 pbc="F F F"
C       37.76800000      38.93400000       0.68800000
C       37.55100000      37.49300000       0.33100000
O       38.51900000      36.79600000       0.45100000
N       36.32700000      37.17600000      -0.06100000
H       36.12500000      36.30600000      -0.49600000
H       35.56700000      37.83500000      -0.02800000
H       37.09100000      39.19100000       1.50600000
H       37.51200000      39.55200000      -0.17500000
H       38.80789000      39.11768000       0.99603680
C       32.78300000      36.52700000       1.91700000
C       32.74000000      36.26300000       0.39900000
O       33.56900000      36.86000000      -0.32700000
O       31.88400000      35.48100000      -0.08600000
H       32.06500000      37.31700000       2.15200000
H       33.77200000      36.88400000       2.21300000
H       32.53118000      35.64563000       2.52508900
