18
Properties=species:S:1:pos:R:3 pbc="F F F"
C        6.11800000      -5.05600000       2.77700000
C        6.16200000      -4.64300000       1.33200000
C        7.55700000      -5.38500000       3.14300000
H        5.48800000      -5.94300000       2.85800000
H        5.72100000      -4.26200000       3.40500000
H        5.22800000      -4.88300000       0.81800000
H        6.33600000      -3.56700000       1.26200000
H        8.04600000      -4.52800000       3.60800000
H        7.01239100      -5.17642000       0.88222460
H        8.02724500      -5.63289300       2.17997400
H        7.56281200      -6.25752200       3.81283000
C        3.99500000      -3.01100000       5.72500000
C        3.82800000      -2.61000000       4.26300000
O        4.52700000      -1.67800000       3.80000000
O        2.97800000      -3.22300000       3.57800000
H        4.24200000      -4.07100000       5.79300000
H        3.04100000      -2.86500000       6.23600000
H        4.75579900      -2.40840200       6.24274600
