17
Properties=species:S:1:pos:R:3 pbc="F F F"
C       13.49800000      -3.02600000      29.06400000
C       13.42800000      -1.56400000      28.66200000
O       14.37900000      -0.78800000      28.83700000
N       12.31100000      -1.18300000      28.13300000
H       13.39400000      -3.01700000      30.15200000
H       14.50500000      -3.40100000      28.86200000
H       12.30400000      -0.23100000      27.78500000
H       11.43700000      -1.61800000      28.37400000
H       12.71870000      -3.68779000      28.65813000
C       16.70800000      -2.09400000      26.73800000
C       17.28900000      -2.11700000      25.32500000
H       17.16400000      -1.30800000      27.33900000
H       16.90700000      -3.04900000      27.22700000
H       15.63000000      -1.94200000      26.68900000
H       18.37400000      -2.19500000      25.40700000
H       17.03413000      -1.18007500      24.80808000
H       16.93050000      -2.99093300      24.76133000
