19
Properties=species:S:1:pos:R:3 pbc="F F F"
C        0.83300000     -11.99300000      17.52800000
C        1.25300000     -13.45200000      17.40600000
C        0.60300000     -11.51100000      18.95900000
H        1.57500000     -11.34800000      17.04900000
H       -0.07000000     -11.93600000      16.97100000
H        0.51900000     -14.08500000      17.91600000
H        1.45800000     -11.74200000      19.59500000
H        0.51900000     -10.42600000      18.91200000
H        2.23945400     -13.60232000      17.86894000
H        1.26526300     -13.75208000      16.34779000
H       -0.31347180     -11.94296000      19.38736000
C       -1.80200000     -10.31800000      16.49200000
C       -1.45000000      -9.18600000      15.53600000
H       -1.67100000     -11.28500000      16.01100000
H       -1.24900000     -10.18800000      17.41600000
H       -2.85800000     -10.23400000      16.75700000
H       -1.98600000      -8.28800000      15.84300000
H       -1.73452100      -9.44758700      14.50614000
H       -0.37036460      -8.97980400      15.57925000
