20
Properties=species:S:1:pos:R:3 pbc="F F F"
C       12.78700000      35.93500000       8.14300000
C       12.50200000      35.31700000       5.75900000
N       13.33700000      34.30300000       5.87400000
N       12.22000000      36.09300000       6.79800000
N       11.93800000      35.55500000       4.59100000
H       13.73100000      34.01500000       6.77000000
H       13.57300000      33.74600000       5.07200000
H       11.60800000      36.88200000       6.64200000
H       11.31200000      36.33700000       4.47600000
H       12.19300000      35.00900000       3.78400000
H       12.75000000      36.88800000       8.67500000
H       13.83900000      35.65300000       8.06400000
H       12.25752000      35.16852000       8.72794600
C       13.53600000      30.79600000       8.82500000
C       14.44700000      32.01800000       8.73700000
O       14.55000000      32.59000000       7.62800000
O       15.04100000      32.42200000       9.76000000
H       13.74200000      30.13300000       7.98100000
H       12.50000000      31.12500000       8.73000000
H       13.65603000      30.21526000       9.75146000
