23
Properties=species:S:1:pos:R:3 pbc="F F F"
C      -23.00700000     -14.39400000     -25.47600000
C      -23.86700000     -15.59000000     -25.01000000
C      -22.00600000     -15.99600000     -27.05600000
N      -22.00900000     -14.81000000     -26.46800000
N      -22.97400000     -16.87300000     -26.85700000
N      -21.03500000     -16.32600000     -27.87900000
H      -23.65000000     -13.61700000     -25.89000000
H      -22.47300000     -13.98600000     -24.61600000
H      -23.24100000     -16.45200000     -24.76000000
H      -24.75600000     -15.73900000     -25.63000000
H      -21.30800000     -14.13600000     -26.74300000
H      -23.91000000     -16.51500000     -26.79400000
H      -22.88300000     -17.78900000     -27.27300000
H      -20.27200000     -15.69400000     -28.06100000
H      -20.98400000     -17.25100000     -28.27500000
H      -24.16288000     -15.59000000     -23.95054000
C      -22.55600000     -10.26400000     -22.28900000
C      -23.78900000     -10.92000000     -22.80600000
O      -23.62800000     -11.92000000     -23.54700000
O      -24.89300000     -10.40500000     -22.49800000
H      -22.80800000      -9.57700000     -21.47600000
H      -22.15700000      -9.68100000     -23.12100000
H      -21.82283000     -10.99789000     -21.92314000
