19
Properties=species:S:1:pos:R:3 pbc="F F F"
C       -4.72900000       5.73500000     -24.43200000
C       -5.85200000       4.79100000     -24.84800000
H       -3.89000000       5.69800000     -25.13000000
H       -5.10100000       6.76200000     -24.42400000
H       -4.38500000       5.50500000     -23.42100000
H       -6.05800000       4.93700000     -25.90500000
H       -5.56272100       3.74398400     -24.67458000
H       -6.76604500       5.01716300     -24.27934000
C       -5.11700000       8.61300000     -26.85400000
C       -5.35800000      10.11100000     -26.70100000
C       -5.32900000       8.15900000     -28.29300000
H       -4.10400000       8.36400000     -26.53400000
H       -5.81700000       8.08300000     -26.21100000
H       -5.15400000      10.37900000     -25.66900000
H       -6.41100000      10.32100000     -26.89500000
H       -6.34500000       8.41500000     -28.59800000
H       -4.62600000       8.65400000     -28.95900000
H       -4.74111900      10.74082000     -27.35886000
H       -5.18602600       7.07225500     -28.38543000
