16
Properties=species:S:1:pos:R:3 pbc="F F F"
C       23.10500000      -7.41600000      -6.52600000
C       24.39800000      -7.31900000      -5.72200000
H       23.05100000      -8.37400000      -7.04600000
H       22.25000000      -7.32400000      -5.85500000
H       23.06400000      -6.60700000      -7.25700000
H       24.41500000      -6.34700000      -5.22500000
H       25.27519000      -7.39799200      -6.38101800
H       24.41392000      -8.09092700      -4.93849800
C       20.14300000      -9.80400000      -5.84600000
C       20.60100000     -10.87000000      -6.85100000
H       19.20800000     -10.10400000      -5.37200000
H       20.90000000      -9.64400000      -5.07800000
H       20.00200000      -8.84000000      -6.33600000
H       21.53800000     -10.52600000      -7.29400000
H       19.85587000     -10.99562000      -7.65037500
H       20.79730000     -11.83432000      -6.35952500
