24
Properties=species:S:1:pos:R:3 pbc="F F F"
C      -14.05200000      29.34200000       1.43300000
C      -11.02400000      27.58700000       0.45400000
C      -12.66200000      28.78000000       1.30700000
C      -11.56800000      28.94500000       2.09800000
N      -12.29600000      27.93000000       0.28400000
N      -10.56100000      28.17800000       1.55200000
H      -10.46500000      26.95300000      -0.21500000
H       -9.62200000      28.05400000       1.93400000
H      -11.49700000      29.56700000       2.98300000
H      -14.37700000      29.65300000       0.43800000
H      -14.01800000      30.24300000       2.04900000
H      -14.78070000      28.62044000       1.83092900
C      -12.47000000      24.20200000       1.23300000
C      -12.41300000      22.87300000       1.96900000
C      -13.76900000      24.33100000       0.47400000
O      -14.84000000      24.33100000       1.06800000
N      -13.69400000      24.31400000      -0.84800000
H      -12.39800000      25.02200000       1.94800000
H      -11.63100000      24.28100000       0.54100000
H      -12.53000000      22.06300000       1.24700000
H      -13.25500000      22.82900000       2.66300000
H      -14.54500000      24.19600000      -1.38700000
H      -12.79800000      24.31500000      -1.30700000
H      -11.48080000      22.72088000       2.53279100
