17
Properties=species:S:1:pos:R:3 pbc="F F F"
C        3.33900000      13.12400000      14.62700000
N        3.43800000      11.83600000      14.06400000
H        3.76200000      11.20700000      14.80300000
H        4.15200000      11.62800000      13.37500000
H        2.53400000      11.37800000      13.91000000
H        3.46400000      12.68300000      15.63100000
H        4.23600000      13.55800000      15.06500000
H        2.37968800      13.52575000      14.98521000
C        4.21900000      13.06400000      12.09800000
C        2.95100000      12.28000000      11.76800000
O        2.03700000      11.96400000      12.52400000
N        2.78600000      11.97100000      10.54200000
H        4.59600000      13.44700000      11.14500000
H        5.06900000      12.43600000      12.39000000
H        1.94000000      11.47200000      10.29800000
H        3.48300000      12.17200000       9.83800000
H        4.05027600      13.96338000      12.70845000
