19
Properties=species:S:1:pos:R:3 pbc="F F F"
C      -23.60600000      11.65500000     -15.36300000
C      -23.95900000      13.09200000     -14.96000000
O      -22.32600000      11.62000000     -15.95100000
H      -23.61900000      11.00400000     -14.48900000
H      -24.34100000      11.28700000     -16.08000000
H      -25.00000000      13.09800000     -14.62700000
H      -22.13600000      10.72400000     -16.25200000
H      -23.87211000      13.78418000     -15.81049000
H      -23.34193000      13.40667000     -14.10548000
C      -24.96100000       9.19500000     -12.73600000
C      -23.61000000       8.68700000     -12.24500000
C      -26.12800000       8.36600000     -12.27000000
O      -26.01600000       7.69700000     -11.22100000
O      -27.18200000       8.44100000     -12.94000000
H      -25.08900000      10.21100000     -12.35800000
H      -24.95700000       9.26200000     -13.82500000
H      -23.60000000       8.63900000     -11.15600000
H      -22.86300000       9.42200000     -12.54500000
H      -23.31533000       7.71170800     -12.65970000
