16
Properties=species:S:1:pos:R:3 pbc="F F F"
C       -7.11700000       5.10400000     -24.06100000
C       -5.85200000       4.79100000     -24.84800000
H       -6.93400000       5.01000000     -22.98800000
H       -7.43800000       6.12000000     -24.27500000
H       -7.91800000       4.42200000     -24.35600000
H       -6.05800000       4.93700000     -25.90500000
H       -5.56272100       3.74398400     -24.67458000
H       -5.04191400       5.47196300     -24.54791000
C      -10.22900000       4.84000000     -22.08400000
C      -11.50600000       5.58900000     -21.72700000
H      -10.46700000       3.92200000     -22.62400000
H       -9.61100000       5.47300000     -22.71800000
H       -9.66200000       4.58600000     -21.19100000
H      -11.24900000       6.54800000     -21.27900000
H      -12.10976000       4.99599200     -21.02428000
H      -12.08121000       5.77970800     -22.64502000
